multiobj/instances/reallike/Ter-rl-5-4-0.80-0.80-0.80-1.0-3.in
5 4
0 59 64 103 62 
59 0 70 49 40 
64 70 0 118 33 
103 49 118 0 85 
62 40 33 85 0 
0 106 0 0 68996 
106 0 0 0 20905 
0 0 0 0 0 
0 0 0 0 0 
68996 20905 0 0 0 
0 17 0 0 41852 
17 0 0 0 77319 
0 0 0 4 0 
0 0 4 0 1 
41852 77319 0 1 0 
0 123 0 0 60513 
123 0 0 0 57919 
0 0 0 0 0 
0 0 0 0 1 
60513 57919 0 1 0 
0 1568 0 0 63092 
1568 0 0 0 23624 
0 0 0 0 0 
0 0 0 0 3 
63092 23624 0 3 0 
