multiobj/solutions/reallike/Ter-rl-5-4-0.80-0.80-0.80-1.0-3.out
2 4
2 1 3 0 4 
6240976 8951080 8644722 6273884 
1 2 3 0 4 
6914250 8454542 8681038 6826436 
